p wcnf 125 250 251 
1 -28 -15 0 
1 -75 94 0 
1 111 -114 0 
1 124 -87 0 
1 95 47 0 
1 -53 102 0 
1 8 -113 0 
1 -47 52 0 
1 26 -7 0 
1 56 -75 0 
1 101 -95 0 
1 89 -69 0 
1 -52 47 0 
1 116 -31 0 
1 -51 -31 0 
1 125 105 0 
1 96 57 0 
1 -117 14 0 
1 74 20 0 
1 -10 11 0 
1 83 35 0 
1 35 75 0 
1 106 29 0 
1 96 -95 0 
1 -28 20 0 
1 111 35 0 
1 4 -52 0 
1 -1 -44 0 
1 -64 20 0 
1 88 -26 0 
1 -97 52 0 
1 -114 -15 0 
1 80 -70 0 
1 -102 39 0 
1 -6 29 0 
1 -44 -15 0 
1 -35 -70 0 
1 118 33 0 
1 -122 39 0 
1 40 -7 0 
1 76 94 0 
1 -124 -125 0 
1 8 12 0 
1 -58 -10 0 
1 -64 6 0 
1 82 -44 0 
1 -99 71 0 
1 -93 -32 0 
1 -13 113 0 
1 17 -120 0 
1 30 90 0 
1 115 -12 0 
1 -113 -81 0 
1 84 120 0 
1 122 -118 0 
1 83 -85 0 
1 98 75 0 
1 31 -92 0 
1 33 -60 0 
1 81 113 0 
1 91 -57 0 
1 -106 -9 0 
1 -120 -69 0 
1 -47 19 0 
1 91 92 0 
1 58 26 0 
1 -53 -110 0 
1 -33 47 0 
1 80 -78 0 
1 88 77 0 
1 -111 47 0 
1 -88 26 0 
1 -65 78 0 
1 -15 -57 0 
1 -16 -58 0 
1 -92 39 0 
1 -61 -36 0 
1 30 6 0 
1 114 -110 0 
1 -15 -87 0 
1 -22 11 0 
1 -6 -102 0 
1 -12 4 0 
1 -21 -2 0 
1 -64 -22 0 
1 -92 19 0 
1 12 24 0 
1 -35 -102 0 
1 -2 -39 0 
1 -67 -50 0 
1 -104 -90 0 
1 -5 -102 0 
1 103 -6 0 
1 79 -8 0 
1 -51 -63 0 
1 101 -44 0 
1 44 -46 0 
1 97 -40 0 
1 108 -77 0 
1 -8 -75 0 
1 -1 6 0 
1 98 -26 0 
1 16 91 0 
1 -29 -102 0 
1 -114 72 0 
1 -2 -89 0 
1 -108 91 0 
1 -97 44 0 
1 39 52 0 
1 52 -58 0 
1 101 -62 0 
1 124 43 0 
1 11 5 0 
1 95 83 0 
1 -75 36 0 
1 -42 -64 0 
1 110 -12 0 
1 44 49 0 
1 104 92 0 
1 -23 -20 0 
1 64 38 0 
1 -108 -28 0 
1 6 -33 0 
1 52 39 0 
1 71 7 0 
1 -43 19 0 
1 -17 91 0 
1 28 -87 0 
1 -59 54 0 
1 -103 -14 0 
1 -70 -108 0 
1 36 -24 0 
1 67 73 0 
1 -94 -20 0 
1 26 -17 0 
1 -54 -61 0 
1 -86 77 0 
1 79 -5 0 
1 53 -86 0 
1 -95 25 0 
1 113 70 0 
1 66 -47 0 
1 81 108 0 
1 24 92 0 
1 -89 -3 0 
1 -119 -111 0 
1 65 69 0 
1 72 -91 0 
1 -67 -9 0 
1 -32 -108 0 
1 8 -53 0 
1 -75 96 0 
1 99 -47 0 
1 -119 96 0 
1 -123 91 0 
1 -107 78 0 
1 97 -82 0 
1 -98 100 0 
1 48 -82 0 
1 -54 -75 0 
1 15 -31 0 
1 96 -84 0 
1 -41 -16 0 
1 114 -73 0 
1 53 -113 0 
1 -87 -74 0 
1 113 35 0 
1 49 -124 0 
1 57 119 0 
1 55 32 0 
1 116 -96 0 
1 -35 -5 0 
1 69 54 0 
1 8 -5 0 
1 51 47 0 
1 -52 -7 0 
1 -69 32 0 
1 64 120 0 
1 -15 96 0 
1 73 117 0 
1 -102 -93 0 
1 70 84 0 
1 61 -100 0 
1 49 26 0 
1 -23 -38 0 
1 29 13 0 
1 -46 114 0 
1 -38 81 0 
1 -88 -83 0 
1 -117 106 0 
1 -79 124 0 
1 -33 76 0 
1 123 -65 0 
1 65 114 0 
1 -57 3 0 
1 -48 -18 0 
1 103 -36 0 
1 -41 -38 0 
1 -26 -107 0 
1 6 124 0 
1 29 41 0 
1 54 75 0 
1 -35 10 0 
1 -8 29 0 
1 92 -118 0 
1 114 -60 0 
1 -28 -123 0 
1 -59 -84 0 
1 -107 6 0 
1 49 108 0 
1 -28 86 0 
1 1 61 0 
1 -79 -103 0 
1 -14 -73 0 
1 18 90 0 
1 112 -81 0 
1 19 28 0 
1 -14 -59 0 
1 -104 -65 0 
1 9 92 0 
1 3 94 0 
1 12 101 0 
1 -21 122 0 
1 41 -56 0 
1 110 69 0 
1 -110 83 0 
1 -78 62 0 
1 2 50 0 
1 -73 18 0 
1 -90 -39 0 
1 -32 -63 0 
1 67 123 0 
1 67 -116 0 
1 -23 17 0 
1 83 73 0 
1 76 111 0 
1 -63 -121 0 
1 -75 19 0 
1 -63 -124 0 
1 78 53 0 
1 -2 34 0 
1 79 58 0 
1 61 -74 0 
1 -77 68 0 
1 68 -34 0 
1 -119 -81 0 
1 -67 117 0 
1 74 -109 0 
1 -13 -26 0 
1 22 -18 0 
